U_400_8.txt

VEHICLE     CAPACITY  LOCATIONS  CUSTOMER  OPTIONS  PRIORITIES  NUMTYPS
10		150		481		400		800		3		4

CUSTOMER  DEMAND
0	 19
1	 12
2	 11
3	 13
4	 12
5	 17
6	 11
7	 20
8	 18
9	 11
10	 19
11	 19
12	 13
13	 14
14	 13
15	 12
16	 20
17	 16
18	 14
19	 13
20	 12
21	 10
22	 20
23	 10
24	 14
25	 17
26	 17
27	 13
28	 12
29	 16
30	 13
31	 17
32	 17
33	 18
34	 10
35	 14
36	 10
37	 13
38	 16
39	 11
40	 14
41	 10
42	 18
43	 18
44	 15
45	 13
46	 12
47	 13
48	 12
49	 19
50	 18
51	 12
52	 19
53	 13
54	 10
55	 11
56	 15
57	 13
58	 13
59	 19
60	 16
61	 18
62	 13
63	 16
64	 17
65	 19
66	 10
67	 15
68	 19
69	 10
70	 10
71	 17
72	 14
73	 15
74	 16
75	 10
76	 12
77	 16
78	 20
79	 12
80	 11
81	 13
82	 10
83	 14
84	 20
85	 16
86	 13
87	 11
88	 10
89	 12
90	 14
91	 16
92	 14
93	 16
94	 11
95	 17
96	 17
97	 12
98	 12
99	 15
100	 10
101	 16
102	 13
103	 20
104	 17
105	 14
106	 11
107	 14
108	 13
109	 15
110	 19
111	 14
112	 12
113	 10
114	 14
115	 10
116	 13
117	 18
118	 15
119	 10
120	 11
121	 18
122	 12
123	 14
124	 20
125	 15
126	 14
127	 14
128	 19
129	 11
130	 19
131	 18
132	 13
133	 15
134	 14
135	 18
136	 11
137	 20
138	 10
139	 20
140	 12
141	 16
142	 16
143	 10
144	 10
145	 16
146	 13
147	 10
148	 17
149	 17
150	 13
151	 12
152	 14
153	 10
154	 16
155	 13
156	 13
157	 19
158	 16
159	 20
160	 13
161	 12
162	 14
163	 14
164	 12
165	 13
166	 18
167	 12
168	 10
169	 18
170	 17
171	 13
172	 11
173	 19
174	 17
175	 20
176	 13
177	 12
178	 18
179	 17
180	 11
181	 15
182	 19
183	 19
184	 19
185	 16
186	 14
187	 19
188	 12
189	 10
190	 20
191	 19
192	 19
193	 12
194	 12
195	 20
196	 14
197	 18
198	 14
199	 11
200	 13
201	 11
202	 12
203	 10
204	 15
205	 18
206	 13
207	 16
208	 12
209	 20
210	 20
211	 14
212	 16
213	 15
214	 20
215	 14
216	 13
217	 12
218	 11
219	 13
220	 19
221	 20
222	 19
223	 20
224	 15
225	 16
226	 11
227	 10
228	 13
229	 19
230	 16
231	 18
232	 10
233	 18
234	 17
235	 17
236	 19
237	 14
238	 20
239	 14
240	 12
241	 11
242	 17
243	 19
244	 12
245	 20
246	 10
247	 20
248	 18
249	 17
250	 19
251	 14
252	 15
253	 15
254	 15
255	 15
256	 11
257	 14
258	 13
259	 18
260	 19
261	 19
262	 17
263	 18
264	 18
265	 18
266	 18
267	 17
268	 12
269	 20
270	 14
271	 14
272	 15
273	 15
274	 15
275	 15
276	 15
277	 13
278	 14
279	 20
280	 15
281	 17
282	 18
283	 16
284	 20
285	 17
286	 11
287	 12
288	 10
289	 20
290	 20
291	 11
292	 11
293	 20
294	 10
295	 19
296	 17
297	 12
298	 14
299	 17
300	 15
301	 18
302	 15
303	 18
304	 12
305	 11
306	 16
307	 19
308	 16
309	 19
310	 14
311	 19
312	 13
313	 14
314	 18
315	 17
316	 18
317	 17
318	 17
319	 19
320	 11
321	 15
322	 13
323	 16
324	 15
325	 16
326	 19
327	 17
328	 13
329	 14
330	 20
331	 16
332	 18
333	 16
334	 16
335	 16
336	 14
337	 14
338	 18
339	 12
340	 20
341	 15
342	 16
343	 12
344	 19
345	 14
346	 19
347	 16
348	 15
349	 14
350	 10
351	 20
352	 19
353	 10
354	 18
355	 19
356	 20
357	 20
358	 12
359	 16
360	 17
361	 11
362	 11
363	 13
364	 19
365	 20
366	 13
367	 10
368	 15
369	 13
370	 19
371	 11
372	 11
373	 12
374	 19
375	 11
376	 17
377	 13
378	 18
379	 16
380	 17
381	 19
382	 15
383	 18
384	 17
385	 18
386	 15
387	 15
388	 17
389	 17
390	 13
391	 13
392	 19
393	 14
394	 14
395	 18
396	 13
397	 13
398	 14
399	 17

LOCATION  XCOORD  YCOORD  CAP  READY  DUE  TYP  SERVICETIME
0		29		39		-1		0		720	 0		0
1		42		44		-1		391		511		 2		6
2		22		6		-1		0		360		 2		6
3		4		19		-1		360		720		 2		6
4		12		28		-1		0		360		 2		6
5		19		15		-1		580		700		 2		6
6		5		33		-1		155		275		 2		6
7		41		30		-1		0		360		 2		6
8		18		16		-1		360		720		 2		6
9		35		36		-1		360		720		 2		6
10		48		35		-1		0		360		 2		6
11		7		34		-1		231		471		 2		6
12		16		22		-1		493		613		 2		6
13		32		50		-1		0		360		 2		6
14		35		4		-1		44		284		 2		6
15		22		49		-1		351		591		 2		6
16		1		10		-1		391		511		 2		6
17		31		33		-1		360		720		 2		6
18		23		32		-1		154		274		 2		6
19		30		49		-1		492		612		 2		6
20		49		34		-1		0		360		 2		6
21		45		42		-1		521		641		 2		6
22		10		46		-1		189		429		 2		6
23		35		11		-1		558		678		 2		6
24		12		13		-1		445		685		 2		6
25		3		33		-1		15		135		 2		6
26		22		26		-1		408		528		 2		6
27		44		37		-1		157		397		 2		6
28		6		39		-1		0		360		 2		6
29		22		21		-1		0		360		 2		6
30		15		50		-1		360		720		 2		6
31		38		14		-1		378		498		 2		6
32		49		25		-1		0		360		 2		6
33		1		6		-1		0		360		 2		6
34		23		37		-1		0		360		 2		6
35		33		12		-1		430		670		 2		6
36		49		24		-1		360		720		 2		6
37		22		20		-1		100		220		 2		6
38		4		7		-1		32		152		 2		6
39		37		18		-1		117		357		 2		6
40		41		27		-1		585		705		 2		6
41		48		21		-1		0		360		 2		6
42		33		38		-1		0		360		 2		6
43		21		16		-1		360		720		 2		6
44		48		46		-1		0		360		 2		6
45		10		15		-1		360		720		 2		6
46		5		29		-1		518		638		 2		6
47		25		23		-1		112		232		 2		6
48		2		27		-1		387		627		 2		6
49		24		33		-1		0		360		 2		6
50		16		46		-1		66		186		 2		6
51		49		27		-1		401		521		 2		6
52		1		18		-1		262		502		 2		6
53		38		29		-1		566		686		 2		6
54		34		35		-1		416		656		 2		6
55		22		17		-1		193		433		 2		6
56		32		2		-1		0		360		 2		6
57		47		35		-1		0		360		 2		6
58		23		12		-1		0		360		 2		6
59		10		7		-1		0		360		 2		6
60		31		32		-1		490		610		 2		6
61		22		44		-1		381		621		 2		6
62		4		6		-1		0		360		 2		6
63		4		21		-1		360		720		 2		6
64		35		44		-1		466		586		 2		6
65		38		4		-1		586		706		 2		6
66		8		31		-1		75		315		 2		6
67		28		24		-1		460		700		 2		6
68		35		49		-1		360		720		 2		6
69		29		30		-1		431		551		 2		6
70		16		10		-1		360		720		 2		6
71		28		22		-1		493		613		 2		6
72		22		18		-1		378		498		 2		6
73		15		15		-1		560		680		 2		6
74		14		9		-1		514		634		 2		6
75		6		2		-1		395		635		 2		6
76		29		27		-1		479		599		 2		6
77		29		42		-1		360		720		 2		6
78		43		4		-1		0		360		 2		6
79		5		37		-1		112		232		 2		6
80		20		39		-1		596		716		 2		6
81		48		15		-1		126		246		 2		6
82		26		5		-1		0		360		 2		6
83		8		18		-1		1		121		 2		6
84		39		10		-1		360		720		 2		6
85		12		43		-1		360		720		 2		6
86		42		15		-1		39		159		 2		6
87		33		35		-1		62		302		 2		6
88		50		13		-1		75		195		 2		6
89		10		39		-1		360		720		 2		6
90		15		6		-1		45		165		 2		6
91		33		7		-1		0		360		 2		6
92		38		2		-1		491		611		 2		6
93		13		35		-1		360		720		 2		6
94		33		15		-1		360		720		 2		6
95		9		11		-1		0		360		 2		6
96		24		25		-1		0		360		 2		6
97		23		1		-1		236		476		 2		6
98		17		23		-1		0		360		 2		6
99		43		30		-1		125		365		 2		6
100		11		47		-1		557		677		 2		6
101		11		10		-1		0		360		 2		6
102		7		48		-1		93		333		 2		6
103		11		30		-1		600		720		 2		6
104		16		34		-1		351		591		 2		6
105		26		33		-1		387		507		 2		6
106		39		49		-1		447		567		 2		6
107		25		28		-1		248		488		 2		6
108		22		15		-1		414		534		 2		6
109		22		35		-1		78		318		 2		6
110		46		29		-1		360		720		 2		6
111		38		35		-1		436		556		 2		6
112		42		37		-1		0		360		 2		6
113		38		46		-1		0		360		 2		6
114		3		8		-1		550		670		 2		6
115		33		1		-1		360		720		 2		6
116		39		25		-1		0		360		 2		6
117		48		3		-1		0		360		 2		6
118		36		23		-1		425		665		 2		6
119		35		25		-1		303		543		 2		6
120		50		31		-1		0		360		 2		6
121		32		48		-1		44		164		 2		6
122		3		18		-1		370		610		 2		6
123		18		10		-1		360		720		 2		6
124		13		21		-1		360		720		 2		6
125		50		40		-1		116		236		 2		6
126		22		32		-1		370		610		 2		6
127		5		27		-1		569		689		 2		6
128		35		9		-1		491		611		 2		6
129		24		15		-1		263		503		 2		6
130		16		21		-1		360		720		 2		6
131		5		40		-1		431		551		 2		6
132		24		31		-1		570		690		 2		6
133		34		41		-1		0		360		 2		6
134		50		31		-1		0		360		 2		6
135		24		15		-1		193		313		 2		6
136		18		8		-1		360		720		 2		6
137		44		33		-1		554		674		 2		6
138		50		33		-1		479		719		 2		6
139		32		34		-1		435		555		 2		6
140		49		33		-1		360		720		 2		6
141		41		19		-1		0		360		 2		6
142		24		2		-1		440		560		 2		6
143		36		11		-1		0		360		 2		6
144		2		40		-1		431		551		 2		6
145		9		33		-1		0		360		 2		6
146		39		47		-1		360		720		 2		6
147		24		37		-1		597		717		 2		6
148		41		18		-1		360		720		 2		6
149		11		40		-1		520		640		 2		6
150		46		2		-1		65		185		 2		6
151		14		7		-1		237		357		 2		6
152		42		28		-1		401		641		 2		6
153		18		26		-1		124		364		 2		6
154		1		41		-1		0		360		 2		6
155		7		6		-1		2		122		 2		6
156		42		46		-1		0		360		 2		6
157		11		10		-1		499		619		 2		6
158		14		37		-1		0		360		 2		6
159		38		8		-1		154		394		 2		6
160		39		13		-1		0		360		 2		6
161		16		49		-1		438		558		 2		6
162		18		28		-1		399		519		 2		6
163		45		1		-1		0		360		 2		6
164		1		2		-1		93		213		 2		6
165		9		33		-1		360		720		 2		6
166		7		16		-1		133		373		 2		6
167		37		23		-1		0		360		 2		6
168		46		12		-1		38		158		 2		6
169		18		32		-1		442		682		 2		6
170		16		43		-1		38		158		 2		6
171		48		22		-1		526		646		 2		6
172		41		4		-1		360		720		 2		6
173		39		50		-1		452		692		 2		6
174		26		12		-1		431		551		 2		6
175		31		46		-1		471		591		 2		6
176		3		15		-1		360		720		 2		6
177		13		20		-1		536		656		 2		6
178		8		16		-1		360		720		 2		6
179		47		30		-1		0		360		 2		6
180		20		9		-1		574		694		 2		6
181		45		31		-1		360		720		 2		6
182		34		42		-1		546		666		 2		6
183		44		48		-1		360		720		 2		6
184		46		49		-1		55		295		 2		6
185		39		1		-1		0		360		 2		6
186		9		29		-1		370		490		 2		6
187		29		49		-1		88		328		 2		6
188		43		13		-1		0		360		 2		6
189		9		14		-1		445		565		 2		6
190		39		38		-1		587		707		 2		6
191		41		18		-1		0		360		 2		6
192		14		5		-1		196		316		 2		6
193		3		35		-1		360		720		 2		6
194		17		29		-1		538		658		 2		6
195		3		3		-1		216		456		 2		6
196		8		27		-1		370		610		 2		6
197		48		44		-1		205		445		 2		6
198		30		34		-1		360		720		 2		6
199		42		8		-1		207		447		 2		6
200		9		34		-1		206		446		 2		6
201		42		30		-1		271		511		 2		6
202		27		39		-1		360		480		 2		6
203		25		19		-1		0		360		 2		6
204		20		16		-1		381		501		 2		6
205		15		44		-1		441		681		 2		6
206		46		6		-1		429		549		 2		6
207		33		50		-1		360		720		 2		6
208		35		2		-1		384		624		 2		6
209		6		37		-1		360		720		 2		6
210		34		35		-1		199		319		 2		6
211		40		38		-1		360		720		 2		6
212		5		4		-1		246		486		 2		6
213		25		4		-1		43		163		 2		6
214		9		23		-1		393		513		 2		6
215		44		1		-1		0		360		 2		6
216		5		2		-1		0		360		 2		6
217		44		24		-1		415		655		 2		6
218		13		1		-1		0		360		 2		6
219		12		23		-1		129		369		 2		6
220		2		7		-1		514		634		 2		6
221		24		9		-1		359		599		 2		6
222		14		17		-1		206		446		 2		6
223		19		9		-1		0		360		 2		6
224		44		12		-1		360		720		 2		6
225		29		19		-1		360		720		 2		6
226		31		2		-1		360		720		 2		6
227		37		18		-1		0		360		 2		6
228		22		24		-1		0		360		 2		6
229		26		16		-1		413		653		 2		6
230		14		1		-1		0		360		 2		6
231		49		27		-1		21		141		 2		6
232		31		23		-1		185		425		 2		6
233		44		46		-1		0		360		 2		6
234		27		33		-1		377		617		 2		6
235		49		24		-1		529		649		 2		6
236		13		42		-1		0		360		 2		6
237		23		41		-1		107		347		 2		6
238		7		12		-1		0		360		 2		6
239		49		22		-1		473		593		 2		6
240		48		45		-1		436		676		 2		6
241		24		35		-1		492		612		 2		6
242		38		2		-1		132		252		 2		6
243		4		1		-1		360		720		 2		6
244		26		5		-1		511		631		 2		6
245		50		3		-1		93		333		 2		6
246		3		10		-1		0		360		 2		6
247		33		28		-1		360		720		 2		6
248		35		12		-1		0		360		 2		6
249		30		26		-1		360		720		 2		6
250		19		36		-1		461		701		 2		6
251		12		31		-1		360		720		 2		6
252		11		19		-1		360		720		 2		6
253		45		41		-1		225		345		 2		6
254		2		32		-1		360		720		 2		6
255		48		5		-1		0		360		 2		6
256		30		15		-1		360		720		 2		6
257		18		5		-1		321		561		 2		6
258		30		26		-1		360		720		 2		6
259		31		18		-1		504		624		 2		6
260		32		36		-1		392		632		 2		6
261		31		19		-1		595		715		 2		6
262		6		42		-1		579		699		 2		6
263		11		10		-1		0		360		 2		6
264		36		29		-1		378		498		 2		6
265		5		48		-1		4		124		 2		6
266		19		17		-1		360		720		 2		6
267		34		34		-1		360		480		 2		6
268		40		46		-1		443		563		 2		6
269		17		6		-1		360		720		 2		6
270		12		29		-1		0		360		 2		6
271		34		41		-1		0		360		 2		6
272		19		21		-1		231		351		 2		6
273		16		13		-1		355		595		 2		6
274		47		37		-1		554		674		 2		6
275		36		1		-1		360		720		 2		6
276		25		25		-1		194		434		 2		6
277		21		37		-1		190		310		 2		6
278		35		42		-1		432		552		 2		6
279		38		14		-1		360		720		 2		6
280		5		18		-1		67		187		 2		6
281		17		28		-1		483		603		 2		6
282		5		10		-1		11		131		 2		6
283		20		26		-1		89		329		 2		6
284		27		22		-1		360		720		 2		6
285		22		14		-1		456		576		 2		6
286		16		7		-1		93		213		 2		6
287		41		32		-1		512		632		 2		6
288		25		33		-1		508		628		 2		6
289		33		22		-1		11		131		 2		6
290		20		48		-1		89		209		 2		6
291		49		7		-1		182		302		 2		6
292		25		29		-1		193		433		 2		6
293		26		6		-1		360		720		 2		6
294		45		31		-1		426		546		 2		6
295		34		34		-1		102		222		 2		6
296		24		35		-1		0		360		 2		6
297		4		34		-1		360		720		 2		6
298		19		44		-1		360		720		 2		6
299		3		43		-1		366		486		 2		6
300		39		26		-1		203		443		 2		6
301		27		17		-1		32		152		 2		6
302		48		31		-1		0		360		 2		6
303		1		48		-1		360		720		 2		6
304		28		49		-1		199		319		 2		6
305		10		49		-1		99		339		 2		6
306		31		48		-1		0		360		 2		6
307		30		44		-1		9		129		 2		6
308		25		15		-1		0		360		 2		6
309		8		46		-1		502		622		 2		6
310		38		39		-1		171		291		 2		6
311		7		30		-1		0		360		 2		6
312		37		17		-1		35		275		 2		6
313		24		50		-1		0		360		 2		6
314		28		50		-1		129		369		 2		6
315		37		20		-1		0		360		 2		6
316		49		38		-1		273		513		 2		6
317		18		2		-1		0		360		 2		6
318		25		31		-1		412		532		 2		6
319		10		35		-1		262		502		 2		6
320		42		46		-1		360		720		 2		6
321		47		20		-1		0		360		 2		6
322		11		49		-1		0		360		 2		6
323		46		16		-1		223		343		 2		6
324		48		17		-1		202		442		 2		6
325		4		44		-1		360		720		 2		6
326		29		21		-1		278		518		 2		6
327		39		19		-1		0		360		 2		6
328		20		24		-1		421		541		 2		6
329		2		3		-1		521		641		 2		6
330		36		18		-1		374		494		 2		6
331		23		28		-1		377		497		 2		6
332		2		39		-1		463		583		 2		6
333		46		42		-1		0		360		 2		6
334		46		40		-1		0		360		 2		6
335		8		15		-1		416		656		 2		6
336		39		13		-1		599		719		 2		6
337		21		46		-1		443		563		 2		6
338		32		2		-1		84		324		 2		6
339		37		24		-1		360		720		 2		6
340		12		26		-1		548		668		 2		6
341		9		34		-1		0		360		 2		6
342		49		26		-1		360		720		 2		6
343		7		39		-1		563		683		 2		6
344		6		14		-1		0		360		 2		6
345		2		34		-1		360		720		 2		6
346		31		17		-1		20		260		 2		6
347		23		29		-1		360		720		 2		6
348		50		23		-1		508		628		 2		6
349		44		43		-1		0		360		 2		6
350		33		24		-1		360		720		 2		6
351		23		35		-1		360		720		 2		6
352		23		12		-1		130		250		 2		6
353		40		30		-1		432		552		 2		6
354		10		24		-1		360		720		 2		6
355		10		15		-1		576		696		 2		6
356		19		34		-1		0		360		 2		6
357		7		36		-1		0		360		 2		6
358		43		14		-1		47		287		 2		6
359		46		38		-1		0		360		 2		6
360		3		27		-1		360		720		 2		6
361		1		43		-1		0		360		 2		6
362		49		22		-1		64		184		 2		6
363		8		5		-1		62		302		 2		6
364		43		37		-1		360		720		 2		6
365		39		30		-1		121		361		 2		6
366		38		36		-1		96		216		 2		6
367		9		7		-1		360		720		 2		6
368		19		41		-1		360		720		 2		6
369		19		27		-1		360		720		 2		6
370		8		5		-1		360		720		 2		6
371		18		17		-1		360		720		 2		6
372		11		7		-1		536		656		 2		6
373		2		19		-1		15		135		 2		6
374		23		6		-1		516		636		 2		6
375		28		48		-1		523		643		 2		6
376		50		47		-1		362		602		 2		6
377		32		31		-1		119		239		 2		6
378		3		1		-1		0		360		 2		6
379		9		6		-1		360		720		 2		6
380		36		22		-1		0		360		 2		6
381		25		8		-1		410		530		 2		6
382		38		29		-1		401		521		 2		6
383		10		30		-1		404		524		 2		6
384		48		14		-1		114		234		 2		6
385		7		40		-1		360		720		 2		6
386		13		43		-1		371		611		 2		6
387		40		15		-1		360		720		 2		6
388		22		9		-1		0		360		 2		6
389		26		37		-1		282		522		 2		6
390		3		47		-1		524		644		 2		6
391		20		49		-1		360		720		 2		6
392		36		48		-1		0		360		 2		6
393		19		12		-1		428		548		 2		6
394		12		1		-1		360		720		 2		6
395		35		16		-1		360		720		 2		6
396		47		31		-1		360		720		 2		6
397		29		28		-1		0		360		 2		6
398		50		45		-1		0		360		 2		6
399		11		37		-1		317		557		 2		6
400		48		30		-1		89		209		 2		6
401		12		42		4		0		720		 1		4
402		27		20		5		181		661		 1		4
403		5		40		5		149		629		 1		4
404		21		34		5		63		543		 1		4
405		37		9		3		0		720		 1		4
406		37		12		5		0		720		 1		4
407		16		23		5		138		618		 1		4
408		38		22		5		50		530		 1		4
409		38		34		5		46		526		 1		4
410		37		44		5		24		504		 1		4
411		25		27		5		20		500		 1		4
412		35		41		5		180		660		 1		4
413		9		11		5		0		720		 1		4
414		17		24		5		202		682		 1		4
415		22		9		5		186		666		 1		4
416		15		18		4		0		720		 1		4
417		41		31		5		141		621		 1		4
418		9		43		5		65		545		 1		4
419		18		28		5		187		667		 1		4
420		34		18		5		224		704		 1		4
421		23		44		3		0		720		 1		4
422		39		20		5		0		720		 1		4
423		38		39		4		0		720		 1		4
424		27		6		5		53		533		 1		4
425		45		11		5		92		572		 1		4
426		24		45		5		0		720		 1		4
427		41		30		5		0		720		 1		4
428		7		22		3		0		720		 1		4
429		8		41		5		69		549		 1		4
430		12		44		5		73		553		 1		4
431		34		40		5		11		491		 1		4
432		39		33		5		33		513		 1		4
433		21		11		5		0		720		 1		4
434		42		5		3		0		720		 1		4
435		28		6		4		0		720		 1		4
436		9		33		5		130		610		 1		4
437		36		21		4		0		720		 1		4
438		34		27		5		0		720		 1		4
439		7		18		5		113		593		 1		4
440		7		43		3		0		720		 1		4
441		25		32		4		0		720		 1		4
442		18		32		3		0		720		 1		4
443		17		10		5		21		501		 1		4
444		7		30		5		200		680		 1		4
445		45		7		5		0		720		 1		4
446		42		9		5		41		521		 1		4
447		23		43		3		0		720		 1		4
448		31		24		4		0		720		 1		4
449		8		40		5		0		720		 1		4
450		45		39		4		0		720		 1		4
451		43		27		5		175		655		 1		4
452		27		12		5		214		694		 1		4
453		40		42		5		54		534		 1		4
454		23		38		3		0		720		 1		4
455		14		29		5		0		720		 1		4
456		23		25		3		0		720		 1		4
457		35		45		5		75		555		 1		4
458		26		39		5		0		720		 1		4
459		38		19		3		0		720		 1		4
460		25		38		4		0		720		 1		4
461		24		37		5		196		676		 1		4
462		44		23		5		48		528		 1		4
463		34		6		3		0		720		 1		4
464		25		39		5		175		655		 1		4
465		30		12		5		154		634		 1		4
466		22		18		5		0		720		 1		4
467		45		22		4		0		720		 1		4
468		33		20		5		193		673		 1		4
469		33		15		3		0		720		 1		4
470		30		11		5		0		720		 1		4
471		11		13		4		0		720		 1		4
472		6		40		3		0		720		 1		4
473		28		41		5		124		604		 1		4
474		24		5		5		109		589		 1		4
475		19		8		5		136		616		 1		4
476		21		21		4		0		720		 1		4
477		27		31		4		0		720		 1		4
478		9		36		5		2		482		 1		4
479		33		29		4		0		720		 1		4
480		29		27		5		182		662		 1		4
OPTION  LOCATION  CUSTOMER  PRIO  SERVICETIME   COST
0		418		0		0		2		0
1		474		1		0		2		0
2		465		2		0		2		0
3		423		3		0		2		0
4		420		4		0		2		0
5		441		5		0		2		0
6		446		6		0		2		0
7		402		7		0		2		0
8		448		8		0		2		0
9		421		9		0		2		0
10		422		10		0		2		0
11		422		11		0		2		0
12		451		12		0		2		0
13		476		13		0		2		0
14		434		14		0		2		0
15		479		15		0		2		0
16		453		16		0		2		0
17		458		17		0		2		0
18		470		18		0		2		0
19		474		19		0		2		0
20		474		20		0		2		0
21		426		21		0		2		0
22		443		22		0		2		0
23		448		23		0		2		0
24		420		24		0		2		0
25		435		25		0		2		0
26		423		26		0		2		0
27		434		27		0		2		0
28		407		28		0		2		0
29		405		29		0		2		0
30		468		30		0		2		0
31		431		31		0		2		0
32		451		32		0		2		0
33		457		33		0		2		0
34		428		34		0		2		0
35		423		35		0		2		0
36		402		36		0		2		0
37		457		37		0		2		0
38		427		38		0		2		0
39		432		39		0		2		0
40		437		40		0		2		0
41		404		41		0		2		0
42		459		42		0		2		0
43		412		43		0		2		0
44		408		44		0		2		0
45		431		45		0		2		0
46		405		46		0		2		0
47		452		47		0		2		0
48		457		48		0		2		0
49		402		49		0		2		0
50		426		50		0		2		0
51		411		51		0		2		0
52		450		52		0		2		0
53		416		53		0		2		0
54		473		54		0		2		0
55		467		55		0		2		0
56		424		56		0		2		0
57		408		57		0		2		0
58		475		58		0		2		0
59		478		59		0		2		0
60		440		60		0		2		0
61		469		61		0		2		0
62		455		62		0		2		0
63		416		63		0		2		0
64		465		64		0		2		0
65		419		65		0		2		0
66		444		66		0		2		0
67		440		67		0		2		0
68		469		68		0		2		0
69		403		69		0		2		0
70		474		70		0		2		0
71		402		71		0		2		0
72		402		72		0		2		0
73		469		73		0		2		0
74		448		74		0		2		0
75		464		75		0		2		0
76		456		76		0		2		0
77		428		77		0		2		0
78		455		78		0		2		0
79		433		79		0		2		0
80		1		80		0		5		0
81		2		81		0		5		0
82		3		82		0		5		0
83		4		83		0		5		0
84		5		84		0		5		0
85		6		85		0		5		0
86		7		86		0		5		0
87		8		87		0		5		0
88		9		88		0		5		0
89		10		89		0		5		0
90		11		90		0		5		0
91		12		91		0		5		0
92		13		92		0		5		0
93		14		93		0		5		0
94		15		94		0		5		0
95		16		95		0		5		0
96		17		96		0		5		0
97		18		97		0		5		0
98		19		98		0		5		0
99		20		99		0		5		0
100		21		100		0		5		0
101		22		101		0		5		0
102		23		102		0		5		0
103		24		103		0		5		0
104		25		104		0		5		0
105		26		105		0		5		0
106		27		106		0		5		0
107		28		107		0		5		0
108		29		108		0		5		0
109		30		109		0		5		0
110		31		110		0		5		0
111		32		111		0		5		0
112		33		112		0		5		0
113		34		113		0		5		0
114		35		114		0		5		0
115		36		115		0		5		0
116		37		116		0		5		0
117		38		117		0		5		0
118		39		118		0		5		0
119		40		119		0		5		0
120		41		120		0		5		0
121		42		121		0		5		0
122		43		122		0		5		0
123		44		123		0		5		0
124		45		124		0		5		0
125		46		125		0		5		0
126		47		126		0		5		0
127		48		127		0		5		0
128		49		128		0		5		0
129		50		129		0		5		0
130		51		130		0		5		0
131		52		131		0		5		0
132		53		132		0		5		0
133		54		133		0		5		0
134		55		134		0		5		0
135		56		135		0		5		0
136		57		136		0		5		0
137		58		137		0		5		0
138		59		138		0		5		0
139		60		139		0		5		0
140		61		140		0		5		0
141		62		141		0		5		0
142		63		142		0		5		0
143		64		143		0		5		0
144		65		144		0		5		0
145		66		145		0		5		0
146		67		146		0		5		0
147		68		147		0		5		0
148		69		148		0		5		0
149		70		149		0		5		0
150		71		150		0		5		0
151		72		151		0		5		0
152		73		152		0		5		0
153		74		153		0		5		0
154		75		154		0		5		0
155		76		155		0		5		0
156		77		156		0		5		0
157		78		157		0		5		0
158		79		158		0		5		0
159		80		159		0		5		0
160		81		160		0		5		0
161		415		160		1		2		0
162		82		161		1		5		0
163		452		161		0		2		0
164		83		162		1		5		0
165		428		162		0		2		0
166		84		163		0		5		0
167		446		163		1		2		0
168		85		164		1		5		0
169		470		164		0		2		0
170		86		165		1		5		0
171		422		165		0		2		0
172		87		166		1		5		0
173		431		166		0		2		0
174		88		167		0		5		0
175		434		167		1		2		0
176		89		168		0		5		0
177		466		168		1		2		0
178		90		169		1		5		0
179		431		169		0		2		0
180		91		170		1		5		0
181		455		170		0		2		0
182		92		171		0		5		0
183		417		171		1		2		0
184		93		172		0		5		0
185		442		172		1		2		0
186		94		173		0		5		0
187		468		173		1		2		0
188		95		174		1		5		0
189		443		174		0		2		0
190		96		175		1		5		0
191		476		175		0		2		0
192		97		176		1		5		0
193		424		176		0		2		0
194		98		177		0		5		0
195		476		177		1		2		0
196		99		178		0		5		0
197		417		178		1		2		0
198		100		179		0		5		0
199		417		179		1		2		0
200		101		180		1		5		0
201		479		180		0		2		0
202		102		181		0		5		0
203		401		181		1		2		0
204		103		182		0		5		0
205		436		182		1		2		0
206		104		183		1		5		0
207		436		183		0		2		0
208		105		184		0		5		0
209		460		184		1		2		0
210		106		185		1		5		0
211		468		185		0		2		0
212		107		186		1		5		0
213		414		186		0		2		0
214		108		187		0		5		0
215		452		187		1		2		0
216		109		188		0		5		0
217		441		188		1		2		0
218		110		189		1		5		0
219		417		189		0		2		0
220		111		190		1		5		0
221		458		190		0		2		0
222		112		191		1		5		0
223		443		191		0		2		0
224		113		192		1		5		0
225		423		192		0		2		0
226		114		193		0		5		0
227		445		193		1		2		0
228		115		194		1		5		0
229		473		194		0		2		0
230		116		195		0		5		0
231		427		195		1		2		0
232		117		196		1		5		0
233		425		196		0		2		0
234		118		197		0		5		0
235		438		197		1		2		0
236		119		198		1		5		0
237		434		198		0		2		0
238		120		199		1		5		0
239		412		199		0		2		0
240		121		200		1		5		0
241		473		200		0		2		0
242		122		201		0		5		0
243		413		201		1		2		0
244		123		202		0		5		0
245		415		202		1		2		0
246		124		203		1		5		0
247		416		203		0		2		0
248		125		204		0		5		0
249		423		204		1		2		0
250		126		205		1		5		0
251		438		205		0		2		0
252		127		206		1		5		0
253		425		206		0		2		0
254		128		207		1		5		0
255		417		207		0		2		0
256		129		208		0		5		0
257		428		208		1		2		0
258		130		209		0		5		0
259		414		209		1		2		0
260		131		210		0		5		0
261		427		210		1		2		0
262		132		211		1		5		0
263		465		211		0		2		0
264		133		212		0		5		0
265		447		212		1		2		0
266		134		213		1		5		0
267		458		213		0		2		0
268		135		214		1		5		0
269		433		214		0		2		0
270		136		215		1		5		0
271		408		215		0		2		0
272		137		216		1		5		0
273		410		216		0		2		0
274		138		217		0		5		0
275		432		217		1		2		0
276		139		218		1		5		0
277		454		218		0		2		0
278		140		219		1		5		0
279		467		219		0		2		0
280		141		220		0		5		0
281		459		220		1		2		0
282		142		221		1		5		0
283		415		221		0		2		0
284		143		222		1		5		0
285		405		222		0		2		0
286		144		223		1		5		0
287		416		223		0		2		0
288		145		224		0		5		0
289		432		224		1		2		0
290		146		225		0		5		0
291		474		225		1		2		0
292		147		226		1		5		0
293		454		226		0		2		0
294		148		227		1		5		0
295		459		227		0		2		0
296		149		228		0		5		0
297		430		228		1		2		0
298		150		229		0		5		0
299		425		229		1		2		0
300		151		230		1		5		0
301		475		230		0		2		0
302		152		231		1		5		0
303		422		231		0		2		0
304		153		232		1		5		0
305		456		232		0		2		0
306		154		233		0		5		0
307		428		233		1		2		0
308		155		234		0		5		0
309		443		234		1		2		0
310		156		235		0		5		0
311		410		235		1		2		0
312		157		236		0		5		0
313		455		236		1		2		0
314		158		237		0		5		0
315		436		237		1		2		0
316		159		238		0		5		0
317		446		238		1		2		0
318		160		239		0		5		0
319		425		239		1		2		0
320		161		240		0		5		0
321		421		240		1		2		0
322		471		240		2		2		0
323		162		241		2		5		0
324		409		241		1		2		0
325		456		241		0		2		0
326		163		242		1		5		0
327		446		242		2		2		0
328		405		242		0		2		0
329		164		243		2		5		0
330		413		243		1		2		0
331		471		243		0		2		0
332		165		244		0		5		0
333		445		244		1		2		0
334		412		244		2		2		0
335		166		245		1		5		0
336		433		245		2		2		0
337		461		245		0		2		0
338		167		246		0		5		0
339		448		246		1		2		0
340		441		246		2		2		0
341		168		247		2		5		0
342		434		247		0		2		0
343		409		247		1		2		0
344		169		248		2		5		0
345		476		248		1		2		0
346		424		248		0		2		0
347		170		249		0		5		0
348		419		249		2		2		0
349		456		249		1		2		0
350		171		250		2		5		0
351		451		250		0		2		0
352		449		250		1		2		0
353		172		251		1		5		0
354		434		251		0		2		0
355		446		251		2		2		0
356		173		252		2		5		0
357		459		252		0		2		0
358		460		252		1		2		0
359		174		253		1		5		0
360		433		253		2		2		0
361		469		253		0		2		0
362		175		254		2		5		0
363		412		254		0		2		0
364		431		254		1		2		0
365		176		255		0		5		0
366		439		255		1		2		0
367		410		255		2		2		0
368		177		256		2		5		0
369		439		256		0		2		0
370		414		256		1		2		0
371		178		257		2		5		0
372		408		257		1		2		0
373		424		257		0		2		0
374		179		258		0		5		0
375		434		258		1		2		0
376		428		258		2		2		0
377		180		259		2		5		0
378		433		259		1		2		0
379		446		259		0		2		0
380		181		260		1		5		0
381		421		260		2		2		0
382		471		260		0		2		0
383		182		261		1		5		0
384		452		261		2		2		0
385		437		261		0		2		0
386		183		262		2		5		0
387		443		262		1		2		0
388		442		262		0		2		0
389		184		263		2		5		0
390		450		263		0		2		0
391		420		263		1		2		0
392		185		264		0		5		0
393		466		264		1		2		0
394		420		264		2		2		0
395		186		265		1		5		0
396		444		265		2		2		0
397		455		265		0		2		0
398		187		266		0		5		0
399		473		266		1		2		0
400		446		266		2		2		0
401		188		267		2		5		0
402		405		267		1		2		0
403		415		267		0		2		0
404		189		268		2		5		0
405		462		268		0		2		0
406		415		268		1		2		0
407		190		269		0		5		0
408		479		269		2		2		0
409		464		269		1		2		0
410		191		270		0		5		0
411		435		270		2		2		0
412		407		270		1		2		0
413		192		271		1		5		0
414		443		271		2		2		0
415		428		271		0		2		0
416		193		272		2		5		0
417		478		272		1		2		0
418		414		272		0		2		0
419		194		273		0		5		0
420		455		273		1		2		0
421		419		273		2		2		0
422		195		274		0		5		0
423		471		274		1		2		0
424		413		274		2		2		0
425		196		275		1		5		0
426		436		275		2		2		0
427		425		275		0		2		0
428		197		276		1		5		0
429		457		276		0		2		0
430		423		276		2		2		0
431		198		277		1		5		0
432		460		277		2		2		0
433		458		277		0		2		0
434		199		278		1		5		0
435		425		278		0		2		0
436		473		278		2		2		0
437		200		279		0		5		0
438		449		279		2		2		0
439		436		279		1		2		0
440		201		280		2		5		0
441		432		280		1		2		0
442		430		280		0		2		0
443		202		281		0		5		0
444		446		281		1		2		0
445		467		281		2		2		0
446		203		282		2		5		0
447		452		282		0		2		0
448		434		282		1		2		0
449		204		283		2		5		0
450		466		283		0		2		0
451		443		283		1		2		0
452		205		284		2		5		0
453		430		284		1		2		0
454		401		284		0		2		0
455		206		285		2		5		0
456		411		285		1		2		0
457		446		285		0		2		0
458		207		286		1		5		0
459		412		286		2		2		0
460		457		286		0		2		0
461		208		287		0		5		0
462		446		287		2		2		0
463		408		287		1		2		0
464		209		288		2		5		0
465		438		288		0		2		0
466		459		288		1		2		0
467		210		289		0		5		0
468		441		289		1		2		0
469		464		289		2		2		0
470		211		290		2		5		0
471		411		290		0		2		0
472		452		290		1		2		0
473		212		291		2		5		0
474		471		291		0		2		0
475		427		291		1		2		0
476		213		292		2		5		0
477		415		292		0		2		0
478		435		292		1		2		0
479		214		293		0		5		0
480		439		293		1		2		0
481		428		293		2		2		0
482		215		294		0		5		0
483		434		294		1		2		0
484		439		294		2		2		0
485		216		295		1		5		0
486		443		295		2		2		0
487		413		295		0		2		0
488		217		296		2		5		0
489		446		296		1		2		0
490		412		296		0		2		0
491		218		297		1		5		0
492		455		297		0		2		0
493		410		297		2		2		0
494		219		298		1		5		0
495		407		298		2		2		0
496		403		298		0		2		0
497		220		299		1		5		0
498		443		299		2		2		0
499		403		299		0		2		0
500		221		300		2		5		0
501		468		300		0		2		0
502		421		300		1		2		0
503		222		301		1		5		0
504		416		301		2		2		0
505		407		301		0		2		0
506		223		302		1		5		0
507		433		302		0		2		0
508		426		302		2		2		0
509		224		303		1		5		0
510		406		303		0		2		0
511		403		303		2		2		0
512		225		304		2		5		0
513		469		304		0		2		0
514		423		304		1		2		0
515		226		305		0		5		0
516		470		305		1		2		0
517		435		305		2		2		0
518		227		306		1		5		0
519		460		306		0		2		0
520		430		306		2		2		0
521		228		307		1		5		0
522		419		307		0		2		0
523		456		307		2		2		0
524		229		308		1		5		0
525		433		308		0		2		0
526		435		308		2		2		0
527		230		309		0		5		0
528		413		309		1		2		0
529		466		309		2		2		0
530		231		310		0		5		0
531		417		310		1		2		0
532		451		310		2		2		0
533		232		311		2		5		0
534		480		311		1		2		0
535		471		311		0		2		0
536		233		312		1		5		0
537		426		312		2		2		0
538		439		312		0		2		0
539		234		313		1		5		0
540		477		313		2		2		0
541		415		313		0		2		0
542		235		314		1		5		0
543		467		314		2		2		0
544		417		314		0		2		0
545		236		315		2		5		0
546		430		315		1		2		0
547		440		315		0		2		0
548		237		316		2		5		0
549		454		316		0		2		0
550		421		316		1		2		0
551		238		317		0		5		0
552		420		317		1		2		0
553		447		317		2		2		0
554		239		318		2		5		0
555		471		318		1		2		0
556		412		318		0		2		0
557		240		319		0		5		0
558		453		319		1		2		0
559		424		319		2		2		0
560		241		320		0		5		0
561		242		320		1		5		0
562		460		320		2		2		0
563		243		321		0		5		0
564		244		321		2		5		0
565		415		321		1		2		0
566		245		322		0		5		0
567		246		322		1		5		0
568		433		322		2		2		0
569		247		323		2		5		0
570		248		323		0		5		0
571		469		323		1		2		0
572		249		324		0		5		0
573		250		324		2		5		0
574		438		324		1		2		0
575		251		325		2		5		0
576		252		325		0		5		0
577		455		325		1		2		0
578		253		326		2		5		0
579		254		326		1		5		0
580		443		326		0		2		0
581		255		327		0		5		0
582		256		327		1		5		0
583		470		327		2		2		0
584		257		328		0		5		0
585		258		328		1		5		0
586		444		328		2		2		0
587		259		329		0		5		0
588		260		329		2		5		0
589		467		329		1		2		0
590		261		330		2		5		0
591		262		330		1		5		0
592		457		330		0		2		0
593		263		331		1		5		0
594		264		331		0		5		0
595		408		331		2		2		0
596		265		332		1		5		0
597		266		332		2		5		0
598		451		332		0		2		0
599		267		333		0		5		0
600		268		333		2		5		0
601		409		333		1		2		0
602		269		334		1		5		0
603		270		334		2		5		0
604		465		334		0		2		0
605		271		335		0		5		0
606		272		335		2		5		0
607		414		335		1		2		0
608		273		336		1		5		0
609		274		336		0		5		0
610		453		336		2		2		0
611		275		337		2		5		0
612		276		337		0		5		0
613		402		337		1		2		0
614		277		338		0		5		0
615		278		338		1		5		0
616		447		338		2		2		0
617		279		339		1		5		0
618		280		339		2		5		0
619		405		339		0		2		0
620		281		340		0		5		0
621		282		340		2		5		0
622		441		340		1		2		0
623		283		341		0		5		0
624		284		341		1		5		0
625		408		341		2		2		0
626		285		342		0		5		0
627		286		342		1		5		0
628		466		342		2		2		0
629		287		343		0		5		0
630		288		343		2		5		0
631		427		343		1		2		0
632		289		344		2		5		0
633		290		344		0		5		0
634		448		344		1		2		0
635		291		345		1		5		0
636		292		345		2		5		0
637		441		345		0		2		0
638		293		346		1		5		0
639		294		346		2		5		0
640		417		346		0		2		0
641		295		347		0		5		0
642		296		347		1		5		0
643		441		347		2		2		0
644		297		348		2		5		0
645		298		348		0		5		0
646		431		348		1		2		0
647		299		349		2		5		0
648		300		349		0		5		0
649		417		349		1		2		0
650		301		350		2		5		0
651		302		350		0		5		0
652		469		350		1		2		0
653		303		351		1		5		0
654		304		351		2		5		0
655		447		351		0		2		0
656		305		352		2		5		0
657		306		352		1		5		0
658		457		352		0		2		0
659		307		353		2		5		0
660		308		353		0		5		0
661		410		353		1		2		0
662		309		354		1		5		0
663		310		354		2		5		0
664		405		354		0		2		0
665		311		355		1		5		0
666		312		355		2		5		0
667		469		355		0		2		0
668		313		356		2		5		0
669		314		356		0		5		0
670		447		356		1		2		0
671		315		357		0		5		0
672		316		357		2		5		0
673		437		357		1		2		0
674		317		358		0		5		0
675		318		358		1		5		0
676		441		358		2		2		0
677		319		359		1		5		0
678		320		359		0		5		0
679		453		359		2		2		0
680		321		360		0		5		0
681		322		360		2		5		0
682		426		360		1		2		0
683		323		361		1		5		0
684		324		361		2		5		0
685		430		361		0		2		0
686		325		362		0		5		0
687		326		362		1		5		0
688		403		362		2		2		0
689		327		363		2		5		0
690		328		363		0		5		0
691		456		363		1		2		0
692		329		364		1		5		0
693		330		364		2		5		0
694		422		364		0		2		0
695		331		365		1		5		0
696		332		365		2		5		0
697		464		365		0		2		0
698		333		366		2		5		0
699		334		366		0		5		0
700		432		366		1		2		0
701		335		367		0		5		0
702		336		367		1		5		0
703		442		367		2		2		0
704		337		368		2		5		0
705		338		368		0		5		0
706		447		368		1		2		0
707		339		369		2		5		0
708		340		369		0		5		0
709		427		369		1		2		0
710		341		370		2		5		0
711		342		370		0		5		0
712		440		370		1		2		0
713		343		371		1		5		0
714		344		371		2		5		0
715		458		371		0		2		0
716		345		372		2		5		0
717		346		372		1		5		0
718		469		372		0		2		0
719		347		373		2		5		0
720		348		373		0		5		0
721		403		373		1		2		0
722		349		374		0		5		0
723		350		374		1		5		0
724		468		374		2		2		0
725		351		375		2		5		0
726		352		375		0		5		0
727		422		375		1		2		0
728		353		376		1		5		0
729		354		376		2		5		0
730		404		376		0		2		0
731		355		377		2		5		0
732		356		377		1		5		0
733		419		377		0		2		0
734		357		378		0		5		0
735		358		378		1		5		0
736		473		378		2		2		0
737		359		379		2		5		0
738		360		379		0		5		0
739		437		379		1		2		0
740		361		380		2		5		0
741		362		380		1		5		0
742		440		380		0		2		0
743		363		381		2		5		0
744		364		381		1		5		0
745		445		381		0		2		0
746		365		382		0		5		0
747		366		382		1		5		0
748		402		382		2		2		0
749		367		383		2		5		0
750		368		383		0		5		0
751		413		383		1		2		0
752		369		384		2		5		0
753		370		384		0		5		0
754		456		384		1		2		0
755		371		385		2		5		0
756		372		385		0		5		0
757		413		385		1		2		0
758		373		386		1		5		0
759		374		386		2		5		0
760		424		386		0		2		0
761		375		387		1		5		0
762		376		387		2		5		0
763		479		387		0		2		0
764		377		388		1		5		0
765		378		388		2		5		0
766		450		388		0		2		0
767		379		389		1		5		0
768		380		389		2		5		0
769		422		389		0		2		0
770		381		390		2		5		0
771		382		390		0		5		0
772		424		390		1		2		0
773		383		391		2		5		0
774		384		391		0		5		0
775		405		391		1		2		0
776		385		392		2		5		0
777		386		392		0		5		0
778		471		392		1		2		0
779		387		393		1		5		0
780		388		393		2		5		0
781		425		393		0		2		0
782		389		394		0		5		0
783		390		394		2		5		0
784		458		394		1		2		0
785		391		395		2		5		0
786		392		395		0		5		0
787		414		395		1		2		0
788		393		396		0		5		0
789		394		396		1		5		0
790		466		396		2		2		0
791		395		397		2		5		0
792		396		397		0		5		0
793		468		397		1		2		0
794		397		398		2		5		0
795		398		398		0		5		0
796		416		398		1		2		0
797		399		399		2		5		0
798		400		399		1		5		0
799		446		399		0		2		0
